8520828
97,36,91,15,100,45,10,89,73,96,31,8,108,6,61,54,56,4,17,57,77,92,46,51,52,63,43,104,18,95,2,16,20,68,23,86,71,81,85,66,27,33,19,59,84,37,38,47,32,34,48,99,13,49,25,5,53,94,22,88,72,80,42,106,12,58,64,39,60,109,67,11,35,28,78,41,93,74,98,79,26,3,70,21,24,75,105,65,55,40,101,29,82,30,103,44,14,69,50,9,107,76,62,102,87,83,1,90,7